p cnf 78 84
-1 2 3 4 8 28 30 34 35 36 37 38 39 40 45 65 72 0 
-2 1 3 4 8 28 30 34 35 36 37 38 39 40 45 65 72 0 
-3 1 2 4 8 28 30 34 35 36 37 38 39 40 45 65 72 0 
-4 1 2 3 8 28 30 34 35 36 37 38 39 40 45 65 72 0 
-5 6 7 20 24 46 50 52 53 57 60 72 0 
-6 5 7 20 24 46 50 52 53 57 60 72 0 
-7 5 6 20 24 46 50 52 53 57 60 72 0 
-8 1 2 3 4 28 30 34 35 36 37 38 39 40 45 65 72 0 
-9 29 33 42 69 73 0 
-10 41 61 73 0 
-11 72 0 
-12 18 21 44 68 -13 73 0 
-14 73 0 
-15 16 72 0 
-16 15 73 0 
-17 48 49 64 71 74 0 
-17 48 49 64 71 75 0 
-18 12 21 44 68 73 0 
-19 73 0 
-20 5 6 7 24 46 50 52 53 57 60 72 0 
-21 12 18 44 68 76 0 
-22 31 75 0 
-23 -24 5 6 7 20 46 50 52 53 57 60 75 0 
-14 -16 15 73 0 
-25 72 0 
-16 15 -13 73 0 
-26 75 0 
-27 74 0 
-28 1 2 3 4 8 30 34 35 36 37 38 39 40 45 65 72 0 
-29 9 33 42 69 77 0 
-30 1 2 3 4 8 28 34 35 36 37 38 39 40 45 65 77 0 
-29 9 33 42 69 72 0 
-31 22 75 0 
-16 15 -32 73 0 
-21 12 18 44 68 72 0 
-21 12 18 44 68 77 0 
-33 9 29 42 69 77 0 
-34 1 2 3 4 8 28 30 35 36 37 38 39 40 45 65 72 0 
-35 1 2 3 4 8 28 30 34 36 37 38 39 40 45 65 72 0 
-36 1 2 3 4 8 28 30 34 35 37 38 39 40 45 65 72 0 
-37 1 2 3 4 8 28 30 34 35 36 38 39 40 45 65 72 0 
-38 1 2 3 4 8 28 30 34 35 36 37 39 40 45 65 72 0 
-39 1 2 3 4 8 28 30 34 35 36 37 38 40 45 65 72 0 
-40 1 2 3 4 8 28 30 34 35 36 37 38 39 45 65 72 0 
-41 10 61 -42 9 29 33 69 74 0 
-41 10 61 74 0 
-43 77 0 
-29 9 33 42 69 76 0 
-44 12 18 21 68 77 0 
-45 1 2 3 4 8 28 30 34 35 36 37 38 39 40 65 72 0 
-46 5 6 7 20 24 50 52 53 57 60 78 0 
-47 51 70 78 0 
-48 17 49 64 71 78 0 
-49 17 48 64 71 78 0 
-50 5 6 7 20 24 46 52 53 57 60 75 0 
-51 47 70 75 0 
-52 5 6 7 20 24 46 50 53 57 60 75 0 
-53 5 6 7 20 24 46 50 52 57 60 76 0 
-23 77 0 
-28 1 2 3 4 8 30 34 35 36 37 38 39 40 45 65 77 0 
-54 66 -55 78 0 
-56 63 78 0 
-57 5 6 7 20 24 46 50 52 53 60 78 0 
-58 78 0 
-18 12 21 44 68 -55 73 0 
-21 12 18 44 68 -59 73 0 
-26 74 0 
-60 5 6 7 20 24 46 50 52 53 57 75 0 
-61 10 41 72 0 
-62 -13 73 0 
-63 56 -52 5 6 7 20 24 46 50 53 57 60 75 0 
-64 17 48 49 71 -51 47 70 75 0 
-56 63 76 0 
-65 1 2 3 4 8 28 30 34 35 36 37 38 39 40 45 72 0 
-66 54 77 0 
-16 15 -67 73 0 
-55 73 0 
-55 78 0 
-62 73 0 
-68 12 18 21 44 77 0 
-10 41 61 74 0 
-69 9 29 33 42 73 0 
-70 47 51 74 0 
-71 17 48 49 64 73 0 
